NAME : amtsp
TYPE : ATSP
DIMENSION : 4
EDGE_WEIGHT_TYPE : EXPLICIT
EDGE_WEIGHT_FORMAT : FULL_MATRIX
EDGE_WEIGHT_SECTION
100000 -100000 100000 100000 
100000 100000 2706 2687 
0 0 100000 -174 
0 0 -174 100000 
